<?xml version = "1.0" encoding="UTF-8" standalone="yes"?>
<CPLEXSolution version="1.2">
 <header
   problemName="IloCplex"
   solutionName="p0"
   solutionIndex="-1"
   objectiveValue="46000"
   solutionTypeValue="3"
   solutionTypeString="primal"
   solutionStatusValue="127"
   solutionStatusString="integer feasible solution"
   solutionMethodString="mip"
   primalFeasible="0"
   dualFeasible="0"
   writeLevel="3"/>
 <quality
   epInt="1.0000000000000001e-05"
   epRHS="9.9999999999999995e-07"
   maxIntInfeas="0"
   maxPrimalInfeas="0"
   maxX="125"
   maxSlack="125"/>
 <variables>
  <variable index="4" value="125"/>
  <variable index="5" value="125"/>
  <variable index="6" value="125"/>
  <variable index="8" value="125"/>
  <variable index="10" value="1"/>
  <variable index="139" value="1"/>
  <variable index="268" value="1"/>
  <variable index="397" value="1"/>
  <variable index="549" value="1"/>
  <variable index="655" value="1"/>
  <variable index="784" value="1"/>
  <variable index="913" value="1"/>
  <variable index="1042" value="1"/>
  <variable index="1171" value="1"/>
  <variable index="1300" value="1"/>
  <variable index="1429" value="1"/>
  <variable index="1558" value="1"/>
  <variable index="1687" value="1"/>
  <variable index="1816" value="1"/>
  <variable index="1945" value="1"/>
  <variable index="2074" value="1"/>
  <variable index="2203" value="1"/>
  <variable index="2332" value="1"/>
  <variable index="2461" value="1"/>
  <variable index="2590" value="1"/>
  <variable index="2719" value="1"/>
  <variable index="2848" value="1"/>
  <variable index="2977" value="1"/>
  <variable index="3106" value="1"/>
  <variable index="3235" value="1"/>
  <variable index="3364" value="1"/>
  <variable index="3470" value="1"/>
  <variable index="3622" value="1"/>
  <variable index="3751" value="1"/>
  <variable index="3884" value="1"/>
  <variable index="4009" value="1"/>
  <variable index="4136" value="1"/>
  <variable index="4267" value="1"/>
  <variable index="4474" value="1"/>
  <variable index="4532" value="1"/>
  <variable index="4654" value="1"/>
  <variable index="4783" value="1"/>
  <variable index="4912" value="1"/>
  <variable index="5043" value="1"/>
  <variable index="5170" value="1"/>
  <variable index="5297" value="1"/>
  <variable index="5421" value="1"/>
  <variable index="5557" value="1"/>
  <variable index="5686" value="1"/>
  <variable index="5815" value="1"/>
  <variable index="5948" value="1"/>
  <variable index="6073" value="1"/>
  <variable index="6202" value="1"/>
  <variable index="6331" value="1"/>
  <variable index="6462" value="1"/>
  <variable index="6589" value="1"/>
  <variable index="6753" value="1"/>
  <variable index="6847" value="1"/>
  <variable index="6976" value="1"/>
  <variable index="7105" value="1"/>
  <variable index="7234" value="1"/>
  <variable index="7363" value="1"/>
  <variable index="7492" value="1"/>
  <variable index="7621" value="1"/>
  <variable index="7750" value="1"/>
  <variable index="7879" value="1"/>
  <variable index="8008" value="1"/>
  <variable index="8137" value="1"/>
  <variable index="8266" value="1"/>
  <variable index="8408" value="1"/>
  <variable index="8524" value="1"/>
  <variable index="8653" value="1"/>
  <variable index="8786" value="1"/>
  <variable index="8911" value="1"/>
  <variable index="9040" value="1"/>
  <variable index="9169" value="1"/>
  <variable index="9294" value="1"/>
  <variable index="9427" value="1"/>
  <variable index="9561" value="1"/>
  <variable index="9685" value="1"/>
  <variable index="9814" value="1"/>
  <variable index="9943" value="1"/>
  <variable index="10059" value="1"/>
  <variable index="10196" value="1"/>
  <variable index="10330" value="1"/>
  <variable index="10459" value="1"/>
  <variable index="10588" value="1"/>
  <variable index="10717" value="1"/>
  <variable index="10846" value="1"/>
  <variable index="10975" value="1"/>
  <variable index="11064" value="1"/>
  <variable index="11239" value="1"/>
  <variable index="11362" value="1"/>
  <variable index="11491" value="1"/>
  <variable index="11620" value="1"/>
  <variable index="11749" value="1"/>
  <variable index="11878" value="1"/>
  <variable index="11946" value="1"/>
  <variable index="12136" value="1"/>
  <variable index="12265" value="1"/>
  <variable index="12394" value="1"/>
  <variable index="12523" value="1"/>
  <variable index="12652" value="1"/>
  <variable index="12781" value="1"/>
  <variable index="12910" value="1"/>
  <variable index="13039" value="1"/>
  <variable index="13168" value="1"/>
  <variable index="13297" value="1"/>
  <variable index="13426" value="1"/>
  <variable index="13555" value="1"/>
  <variable index="13684" value="1"/>
  <variable index="13813" value="1"/>
  <variable index="13942" value="1"/>
  <variable index="14071" value="1"/>
  <variable index="14200" value="1"/>
  <variable index="14329" value="1"/>
  <variable index="14432" value="1"/>
  <variable index="14587" value="1"/>
  <variable index="14716" value="1"/>
  <variable index="14845" value="1"/>
  <variable index="14974" value="1"/>
  <variable index="15103" value="1"/>
  <variable index="15232" value="1"/>
  <variable index="15361" value="1"/>
  <variable index="15490" value="1"/>
  <variable index="15619" value="1"/>
  <variable index="15748" value="1"/>
  <variable index="15877" value="1"/>
  <variable index="16006" value="1"/>
  <variable index="16135" value="1"/>
  <variable index="16264" value="1"/>
  <variable index="16393" value="1"/>
  <variable index="16398" value="1"/>
  <variable index="16399" value="1"/>
  <variable index="16400" value="1"/>
  <variable index="16402" value="1"/>
  <variable index="16404" value="125"/>
 </variables>
</CPLEXSolution>
